3811739
29,142,203,171,51,180,50,72,121,122,229,140,23,65,58,10,109,59,175,89,74,73,146,134,48,82,228,93,56,69,118,162,6,36,27,25,90,184,63,193,18,152,12,13,154,0,38,137,62,206,22,207,213,148,147,205,192,64,16,43,196,176,41,14,125,222,202,160,31,116,28,208,68,225,190,119,133,195,115,183,32,173,172,138,44,5,37,136,19,71,70,161,194,224,188,15,91,99,112,159,113,220,212,211,135,200,57,11,108,170,169,168,34,126,40,218,24,181,127,215,223,47,46,103,104,105,185,186,78,79,81,1,76,201,174,141,9,124,197,155,144,54,150,8,95,106,49,39,61,209,21,182,35,117,139,177,66,156,30,158,198,42,217,45,110,226,145,55,98,120,179,17,167,102,227,92,157,221,114,123,75,94,60,131,84,85,83,166,187,130,151,163,100,216,191,111,178,132,26,101,129,128,87,52,53,189,97,96,164,153,199,4,3,20,67,165,88,107,86,214,80,77,210,219,7,2,149,204,33,143
